20
8
0 52 23 25 77 50 47 72
7
0 114 31 198 6 193 22
12
0 110 28 36 117 62 43 115 169 10 86 184
8
0 116 109 148 174 44 179 149
12
0 131 12 30 156 5 186 150 76 157 58 138
14
0 84 78 19 134 182 128 113 87 147 27 177 104 175
13
0 144 159 66 119 111 74 21 16 24 57 140 151
11
0 190 176 46 106 53 133 102 170 38 42
12
0 39 162 105 191 35 56 99 155 96 95 94
8
0 173 135 137 81 187 165 49
15
0 197 64 79 160 124 180 1 34 168 67 29 163 90 194
14
0 26 192 127 166 40 88 139 20 153 101 93 85 112
8
0 158 60 8 15 121 51 69
9
0 120 183 123 178 152 83 125 181
14
0 122 161 54 185 154 7 145 142 89 33 97 199 195
16
0 14 63 41 126 108 61 82 71 129 70 37 55 4 136 132
11
0 146 3 100 59 107 141 68 188 2 75
9
0 11 92 98 9 118 65 103 143
10
0 45 17 189 91 196 80 32 164 167
8
0 171 48 18 13 73 130 172
